results_rootrelaxation/bin018_060_002.srr.sol
solution status: optimal solution found
objective value:                                    0
_var2792_                          0.0114253846245057 	(obj:0)
_var2793_                           0.107885833658893 	(obj:0)
_var2794_                          0.0579355007940375 	(obj:0)
_var2795_                           0.153734435708419 	(obj:0)
_var2804_                            0.12470834906025 	(obj:0)
_var2811_                          0.0570658590736583 	(obj:0)
_var2815_                          0.0809825562410956 	(obj:0)
_var2816_                          0.0937429993111857 	(obj:0)
_var2841_                           0.225430305410914 	(obj:0)
_var2852_                          0.0909857829947161 	(obj:0)
_var2853_                          0.0241901849049126 	(obj:0)
_var2860_                          0.0187220308297154 	(obj:0)
_var2894_                          0.0712852148532948 	(obj:0)
_var2895_                          0.0454948645974516 	(obj:0)
_var2902_                           0.144529522911835 	(obj:0)
_var2913_                         0.00607237443929036 	(obj:0)
_var2928_                           0.120294821502191 	(obj:0)
_var2940_                           0.143866610653064 	(obj:0)
_var2946_                           0.265994706434451 	(obj:0)
_var2948_                           0.187470148601569 	(obj:0)
_var2949_                          0.0359905180413601 	(obj:0)
_var2951_                           0.166524203257349 	(obj:0)
_var2952_                           0.186243597135606 	(obj:0)
_var2955_                           0.171446319225815 	(obj:0)
_var2963_                           0.120824093680715 	(obj:0)
_var2966_                          0.0199663242169636 	(obj:0)
_var2967_                           0.293904815439508 	(obj:0)
_var2968_                          0.0156729844911881 	(obj:0)
_var2976_                         0.00827159566512962 	(obj:0)
_var2977_                         0.00695712520171105 	(obj:0)
_var2978_                           0.173095899832339 	(obj:0)
_var2980_                         0.00558873002401811 	(obj:0)
_var2988_                           0.191266775880502 	(obj:0)
_var2990_                          0.0924523672529723 	(obj:0)
_var2993_                           0.179995267110589 	(obj:0)
_var2994_                          0.0244084234287181 	(obj:0)
_var2998_                             0.1012412248938 	(obj:0)
_var2999_                          0.0878728744771973 	(obj:0)
_var3001_                          0.0852413791601639 	(obj:0)
_var3005_                          0.0632844105705628 	(obj:0)
_var3011_                         0.00491576054390352 	(obj:0)
_var3022_                           0.224434777864136 	(obj:0)
_var3023_                           0.392422877792513 	(obj:0)
_var3025_                            0.14991506125393 	(obj:0)
_var3029_                           0.335712536699104 	(obj:0)
_var3032_                          0.0691988315183132 	(obj:0)
_var3046_                           0.171485633699542 	(obj:0)
_var3047_                           0.451498089360664 	(obj:0)
_var3049_                           0.204421555203091 	(obj:0)
_var3052_                          0.0607900341738919 	(obj:0)
_var3053_                          0.0635709657288128 	(obj:0)
_var3056_                          0.0154546667191112 	(obj:0)
_var3059_                          0.0461240309220938 	(obj:0)
_var3060_                           0.347707967386722 	(obj:0)
_var3062_                           0.175671965504034 	(obj:0)
_var3068_                          0.0570093468573094 	(obj:0)
_var3069_                            0.16345634867512 	(obj:0)
_var3070_                           0.140654313943845 	(obj:0)
_var3076_                           0.100206625993896 	(obj:0)
_var3078_                         0.00270754842503812 	(obj:0)
_var3085_                           0.258715765483564 	(obj:0)
_var3087_                           0.154522839251538 	(obj:0)
_var3089_                           0.378471540868065 	(obj:0)
_var3092_                           0.441988760467063 	(obj:0)
_var3094_                           0.158388113997258 	(obj:0)
_var3095_                          0.0360805848939609 	(obj:0)
_var3100_                           0.120863249795804 	(obj:0)
_var3101_                           0.070826581809761 	(obj:0)
_var3102_                          0.0630563304221775 	(obj:0)
_var3103_                           0.198462824561004 	(obj:0)
_var3104_                            0.19574636700718 	(obj:0)
_var3105_                           0.228984284982479 	(obj:0)
_var3111_                            0.11436948890307 	(obj:0)
_var3112_                           0.078673927973068 	(obj:0)
_var3127_                            0.28544844152289 	(obj:0)
_var3128_                           0.115266432480408 	(obj:0)
_var3129_                           0.396626210085322 	(obj:0)
_var3130_                           0.205641237608645 	(obj:0)
_var3133_                           0.127074145459947 	(obj:0)
_var3134_                          0.0688349360074229 	(obj:0)
_var3135_                           0.104053263145145 	(obj:0)
_var3136_                           0.207341532413575 	(obj:0)
_var3147_                          0.0877675430736271 	(obj:0)
_var3149_                          0.0209854619950072 	(obj:0)
_var3152_                           0.163881839669289 	(obj:0)
_var3153_                          0.0655366267426256 	(obj:0)
_var3155_                          0.0094370785043292 	(obj:0)
_var3156_                          0.0248156951162491 	(obj:0)
_var3158_                          0.0374520513321982 	(obj:0)
_var3159_                           0.152032944037723 	(obj:0)
_var3160_                           0.014749371574116 	(obj:0)
_var3161_                          0.0273805462522914 	(obj:0)
_var3162_                            0.22612571175784 	(obj:0)
_var3163_                         0.00930811162076615 	(obj:0)
_var3167_                           0.100442302068128 	(obj:0)
_var3168_                          0.0156029370309755 	(obj:0)
_var3169_                          0.0754717530371525 	(obj:0)
_var3171_                           0.123932840193409 	(obj:0)
_var3173_                           0.119384231119947 	(obj:0)
_var3174_                           0.336344622276254 	(obj:0)
_var3175_                          0.0672774646522326 	(obj:0)
_var3177_                          0.0294228436780153 	(obj:0)
_var3183_                          0.0167944183094819 	(obj:0)
_var3184_                         0.000962573002598915 	(obj:0)
_var3185_                           0.189649007759695 	(obj:0)
_var3186_                          0.0682551323218956 	(obj:0)
_var3187_                          0.0276281130004488 	(obj:0)
_var3189_                          0.0861517065421778 	(obj:0)
_var3190_                           0.056297450645535 	(obj:0)
_var3191_                          0.0508091958352866 	(obj:0)
_var3192_                           0.106132850942944 	(obj:0)
_var3199_                           0.137093041741024 	(obj:0)
_var3200_                          0.0929086527130112 	(obj:0)
_var3202_                          0.0534677818317009 	(obj:0)
_var3203_                          0.0884339712295715 	(obj:0)
_var3207_                           0.116503778182141 	(obj:0)
_var3209_                           0.103191642721911 	(obj:0)
_var3211_                           0.413457717563029 	(obj:0)
_var3213_                          0.0258243050040437 	(obj:0)
_var3214_                            0.21226365523595 	(obj:0)
_var3215_                          0.0357264571906851 	(obj:0)
_var3216_                           0.182612888027992 	(obj:0)
_var3218_                           0.142825317986961 	(obj:0)
_var3219_                          0.0107989248351496 	(obj:0)
_var3221_                           0.142617294967323 	(obj:0)
_var3222_                          0.0618959252111067 	(obj:0)
_var3223_                          0.0867369850324841 	(obj:0)
_var3224_                          0.0377834014871704 	(obj:0)
_var3226_                          0.0962105926311554 	(obj:0)
_var3227_                           0.129626027031697 	(obj:0)
_var3229_                           0.068561639797263 	(obj:0)
_var3230_                          0.0123179804706585 	(obj:0)
_var3231_                          0.0471657978953094 	(obj:0)
_var3232_                           0.176234564923446 	(obj:0)
_var3234_                           0.114422546074953 	(obj:0)
_var3235_                          0.0829074330868346 	(obj:0)
_var3236_                          0.0448478168170612 	(obj:0)
_var3241_                           0.127995613323433 	(obj:0)
_var3244_                           0.130281647007335 	(obj:0)
_var3245_                         0.00792893946480454 	(obj:0)
_var3246_                         0.00117753032729168 	(obj:0)
_var3248_                           0.028907301094868 	(obj:0)
_var3249_                           0.057246617114316 	(obj:0)
_var3251_                          0.0816633797371761 	(obj:0)
_var3255_                           0.122138147854655 	(obj:0)
_var3256_                          0.0123158325857968 	(obj:0)
_var3258_                         0.00824894869625525 	(obj:0)
_var3259_                          0.0898451181085585 	(obj:0)
_var3260_                          0.0043089836905308 	(obj:0)
_var3263_                          0.0526111642170305 	(obj:0)
